000 000 000 000 000 -99 -99 000 -99 -99 -99 -99 -99 000 000 000 -99 -99 000 000 000 000 000 -99 000 000 -99 -99 -99 -99 000
000 000 000 000 000 000 000 000 -99 -99 -99 -99 -99 -99 000 000 -99 -99 -99 000 000 000 000 -99 000 000 -99 -99 -99 -99 000
000 000 000 000 000 000 000 000 000 -99 -99 -99 -99 -99 000 000 -99 -99 -99 -99 -99 000 000 000 000 000 -99 -99 -99 -99 -99
-99 000 000 000 000 000 000 -99 -99 000 -99 -99 000 -99 000 000 -99 -99 -99 -99 000 000 000 000 000 000 -99 -99 -99 -99 -99
000 000 000 000 000 -99 000 000 -99 000 -99 -99 000 000 000 000 -99 -99 -99 -99 000 -99 000 000 000 000 -99 -99 -99 -99 -99
000 000 000 000 000 -99 000 000 000 000 -99 -99 000 000 000 000 -99 -99 -99 -99 000 000 000 000 000 000 -99 -99 -99 -99 -99
000 000 000 000 000 -99 000 000 000 000 000 -99 000 000 -99 -99 000 000 -99 -99 000 -99 000 000 000 000 -99 -99 -99 -99 -99
000 000 000 000 000 -99 -99 000 000 000 000 -99 -99 000 000 000 000 000 000 -99 000 -99 000 000 000 -99 -99 -99 -99 -99 -99
000 000 000 000 000 -99 -99 000 000 000 000 000 -99 -99 000 000 -99 000 000 000 000 -99 -99 000 000 -99 -99 -99 -99 -99 -99
000 000 000 000 000 000 -99 000 000 000 000 000 000 -99 000 000 -99 000 000 000 000 000 -99 -99 000 000 -99 -99 -99 000 000
000 000 000 000 000 000 000 000 000 000 000 000 000 000 -99 000 -99 -99 000 -99 000 000 -99 -99 000 000 -99 -99 000 000 000
000 000 000 000 000 000 000 000 000 000 000 000 000 000 -99 000 -99 -99 -99 -99 -99 000 -99 000 000 -99 -99 -99 000 000 000
000 000 000 000 000 000 000 000 000 000 000 000 -99 -99 -99 -99 -99 -99 -99 -99 -99 000 -99 -99 000 -99 000 000 000 000 000
000 000 000 000 000 000 000 000 000 -99 000 000 000 000 -99 000 -99 -99 -99 -99 -99 000 -99 -99 000 000 000 000 000 000 -99
000 000 000 000 000 000 000 000 000 -99 -99 000 000 000 000 000 000 -99 000 000 -99 000 -99 -99 000 000 000 000 000 000 -99
000 -99 -99 000 000 000 000 000 000 -99 -99 -99 000 -99 000 000 000 000 000 000 -99 000 -99 000 -99 000 000 -99 000 -99 -99
-99 -99 -99 -99 -99 -99 000 000 000 -99 -99 -99 -99 -99 000 000 000 000 000 -99 -99 -99 000 -99 000 -99 000 000 -99 000 -99
000 -99 000 -99 -99 -99 -99 000 000 000 000 -99 -99 -99 000 000 000 000 -99 -99 -99 -99 000 -99 -99 -99 -99 -99 -99 000 -99
000 000 000 -99 -99 -99 000 000 000 000 000 000 -99 000 000 000 000 000 000 -99 -99 000 000 -99 -99 -99 -99 -99 -99 -99 -99
000 000 000 000 -99 -99 -99 000 000 000 000 000 -99 000 000 000 000 000 000 000 000 000 000 -99 -99 -99 -99 -99 -99 -99 -99
000 000 000 000 000 000 -99 -99 000 000 000 -99 000 000 000 000 000 000 000 000 000 000 000 -99 -99 -99 -99 -99 -99 -99 -99
000 000 000 000 000 000 -99 000 000 000 -99 -99 000 000 000 000 000 000 000 000 000 000 000 -99 -99 -99 -99 -99 -99 -99 -99
000 000 000 000 000 000 000 000 000 000 -99 -99 000 000 000 000 000 000 000 000 000 000 000 -99 -99 -99 -99 -99 -99 -99 -99
000 000 000 000 000 000 -99 000 000 000 -99 -99 000 000 000 000 000 000 -99 000 000 000 -99 -99 -99 -99 -99 -99 -99 -99 -99
000 000 000 000 000 000 000 000 000 000 -99 -99 000 000 000 000 000 000 -99 000 000 000 -99 -99 -99 -99 -99 -99 -99 -99 -99
000 000 000 000 000 000 000 000 000 000 -99 -99 000 000 000 000 000 000 000 000 000 -99 -99 -99 -99 -99 -99 -99 -99 -99 -99
000 000 000 000 000 000 000 000 000 000 000 -99 -99 000 000 000 000 000 000 000 000 000 -99 -99 -99 -99 -99 -99 -99 -99 -99
000 000 000 -99 000 000 -99 000 000 000 -99 -99 -99 000 000 000 000 000 000 000 000 000 -99 -99 -99 -99 -99 -99 -99 -99 000
000 000 000 000 000 000 000 000 000 000 000 -99 -99 000 000 000 -99 000 000 000 000 000 -99 -99 -99 -99 -99 -99 -99 -99 000
000 000 000 000 000 000 000 000 000 000 000 -99 -99 000 000 000 -99 -99 000 -99 000 000 -99 -99 -99 -99 -99 -99 -99 -99 000
000 000 000 000 000 000 000 000 000 000 000 -99 -99 000 000 000 -99 -99 000 000 -99 000 -99 -99 -99 -99 -99 -99 -99 -99 -99
000 000 000 000 000 000 000 -99 000 000 000 -99 -99 000 000 -99 -99 -99 000 000 -99 -99 -99 -99 -99 -99 -99 -99 -99 -99 -99
000 000 000 000 000 000 000 000 000 000 -99 -99 -99 000 000 -99 -99 -99 000 -99 -99 -99 -99 -99 000 -99 -99 -99 -99 -99 -99
000 000 000 000 000 000 000 000 000 000 -99 -99 -99 000 000 000 000 -99 000 000 -99 -99 -99 -99 000 000 -99 -99 -99 -99 000
000 000 000 000 000 000 000 000 000 000 000 000 000 000 000 -99 -99 -99 000 000 000 -99 -99 -99 000 000 -99 -99 -99 -99 000
000 000 000 000 000 000 000 000 000 000 000 000 000 000 000 000 -99 -99 000 000 000 -99 -99 -99 000 000 000 000 000 -99 000
000 000 000 000 000 000 000 000 000 000 000 000 000 000 000 000 -99 000 000 000 000 -99 -99 -99 000 000 000 000 000 000 000
000 000 -99 000 000 000 000 -99 -99 000 -99 000 000 000 000 000 000 000 000 000 000 -99 -99 -99 000 000 000 000 000 000 000
000 000 000 000 000 000 000 000 -99 -99 -99 -99 000 000 000 000 000 000 -99 000 000 -99 -99 000 000 000 000 000 000 000 -99
000 000 000 000 000 000 000 000 -99 -99 -99 000 000 000 000 000 000 000 -99 000 -99 -99 -99 000 000 000 000 000 000 000 -99
000 000 000 000 000 000 -99 -99 -99 -99 -99 000 000 000 000 000 000 000 000 -99 -99 -99 000 000 000 000 000 001 000 000 000
000 000 000 000 000 000 000 -99 -99 -99 000 000 000 000 000 000 000 000 000 -99 -99 -99 000 000 000 000 000 000 000 000 000
000 000 000 -99 -99 000 000 -99 -99 000 000 000 000 000 000 000 000 000 000 000 000 -99 000 000 000 000 000 000 000 000 001
000 000 000 -99 -99 000 -99 -99 -99 -99 000 000 000 000 000 000 000 000 000 000 000 -99 000 000 000 000 000 000 000 000 001
000 000 -99 -99 -99 -99 -99 -99 -99 -99 -99 000 000 000 000 000 000 -99 -99 000 000 -99 000 000 000 000 000 000 000 001 001
000 -99 -99 -99 -99 -99 -99 -99 -99 000 -99 000 000 000 000 000 000 -99 -99 000 000 000 000 000 000 000 000 000 -99 001 001
000 -99 -99 -99 -99 -99 -99 -99 000 000 000 000 000 000 000 000 -99 -99 000 000 000 000 000 000 000 000 001 -99 -99 000 001
-99 -99 -99 -99 -99 -99 -99 -99 000 000 000 -99 000 000 000 -99 -99 000 000 -99 000 000 000 000 002 003 001 -99 000 000 001
-99 -99 -99 -99 -99 -99 -99 -99 -99 -99 000 000 000 000 000 -99 000 000 000 -99 000 000 000 000 003 001 001 000 000 001 001
-99 -99 -99 -99 -99 -99 -99 -99 -99 -99 000 000 000 000 -99 -99 000 000 000 000 000 000 000 001 004 001 -99 000 -99 000 000
-99 -99 -99 -99 -99 -99 -99 -99 -99 -99 -99 000 000 000 -99 000 000 000 000 000 000 000 000 001 003 005 000 -99 000 000 000
-99 -99 -99 -99 -99 -99 -99 -99 -99 -99 000 -99 000 000 -99 000 000 000 000 000 000 -99 000 000 002 002 000 000 -99 000 -99
-99 -99 -99 -99 -99 -99 -99 -99 -99 000 000 000 000 000 000 000 001 000 000 000 000 -99 000 000 002 000 000 000 000 -99 -99
-99 -99 -99 -99 -99 -99 -99 -99 -99 000 000 000 -99 001 001 000 000 000 000 000 -99 -99 -99 000 001 000 000 000 -99 -99 -99
-99 -99 -99 -99 -99 -99 -99 -99 000 000 000 -99 -99 000 000 000 000 000 000 000 000 -99 -99 000 -99 000 001 000 -99 -99 -99
